NAME : traveling-santa-2018-prime-paths.29096.tour
COMMENT : Length = 29096
COMMENT : Found by LKH [Keld Helsgaun] Sun Jun 12 20:00:22 2022
TYPE : TOUR
DIMENSION : 100
TOUR_SECTION
1
24
64
25
88
72
59
74
47
32
89
3
97
15
35
43
81
8
93
77
80
54
40
19
50
79
39
5
56
12
4
22
86
68
70
23
27
53
92
87
28
29
61
33
76
38
46
10
9
71
98
82
73
75
90
14
20
95
11
57
48
42
37
21
36
60
30
78
7
26
44
63
65
99
96
85
49
69
45
13
17
62
91
18
83
100
67
52
6
31
16
2
34
51
84
94
66
41
55
58
-1
EOF
